c FILE /home/rafael/Documents/HappySet/MIHS/inputs/happygen/output/graph_scale_free_k10_p0.2_v50_20241127_082511.txt
c SOURCE This is a scale-free graph formed for the happy graph colouring problem.
c DESCRIPTION It was generated using the problem generator of Rhyd Lewis
c
c GRAPH STATS
c Seed                             = -314046441
c Number of Nodes                  = 50
c Number of colours k              = 10
c Number of pre-assignments        = 10
c Number of links per new node     = 5
c Density                          = 0.191837
c 
c The degrees of nodes 1 to 50, respectively, are as follows 
c [23, 22, 21, 19, 18, 17, 16, 15, 15, 13, 13, 12, 12, 12, 11, 11, 10, 10, 10, 10, 10, 10, 10, 8, 7, 7, 
c  6, 6, 6, 6, 6, 6, 6, 6, 5, 5, 5, 5, 5, 5, 5, 5, 5, 5, 5, 5, 5, 5, 5, 5] 
c  
p edge 50 235 10
e 1 2
e 1 3
e 1 4
e 1 5
e 1 6
e 1 8
e 1 9
e 1 10
e 1 11
e 1 12
e 1 13
e 1 17
e 1 18
e 1 23
e 1 27
e 1 29
e 1 30
e 1 36
e 1 38
e 1 39
e 1 41
e 1 45
e 1 47
e 2 3
e 2 4
e 2 5
e 2 6
e 2 7
e 2 8
e 2 9
e 2 10
e 2 12
e 2 13
e 2 16
e 2 17
e 2 18
e 2 20
e 2 21
e 2 23
e 2 28
e 2 32
e 2 35
e 2 36
e 2 42
e 3 4
e 3 5
e 3 6
e 3 10
e 3 11
e 3 12
e 3 13
e 3 15
e 3 18
e 3 22
e 3 25
e 3 26
e 3 27
e 3 28
e 3 32
e 3 36
e 3 38
e 3 46
e 3 50
e 4 6
e 4 7
e 4 8
e 4 9
e 4 10
e 4 11
e 4 17
e 4 21
e 4 26
e 4 37
e 4 41
e 4 42
e 4 43
e 4 44
e 4 46
e 4 48
e 5 6
e 5 7
e 5 8
e 5 9
e 5 16
e 5 17
e 5 19
e 5 20
e 5 24
e 5 27
e 5 31
e 5 32
e 5 35
e 5 37
e 5 40
e 6 8
e 6 10
e 6 12
e 6 14
e 6 17
e 6 22
e 6 29
e 6 30
e 6 38
e 6 41
e 6 46
e 6 48
e 7 8
e 7 9
e 7 10
e 7 15
e 7 19
e 7 25
e 7 29
e 7 37
e 7 40
e 7 44
e 7 45
e 7 47
e 7 49
e 8 10
e 8 12
e 8 14
e 8 15
e 8 18
e 8 22
e 8 25
e 8 28
e 8 39
e 9 11
e 9 14
e 9 15
e 9 23
e 9 24
e 9 25
e 9 31
e 9 39
e 9 43
e 9 46
e 10 11
e 10 13
e 10 25
e 10 27
e 10 34
e 10 35
e 11 15
e 11 16
e 11 19
e 11 20
e 11 24
e 11 27
e 11 34
e 11 42
e 12 16
e 12 18
e 12 19
e 12 21
e 12 22
e 12 24
e 12 31
e 13 16
e 13 21
e 13 32
e 13 33
e 13 34
e 13 35
e 13 38
e 13 45
e 14 15
e 14 19
e 14 21
e 14 26
e 14 29
e 14 37
e 14 42
e 14 49
e 14 50
e 15 16
e 15 33
e 15 36
e 15 41
e 15 48
e 16 23
e 16 28
e 16 38
e 16 47
e 16 50
e 17 20
e 17 24
e 17 31
e 17 44
e 17 49
e 18 19
e 18 23
e 18 34
e 18 43
e 18 46
e 19 30
e 19 43
e 19 48
e 19 49
e 20 24
e 20 26
e 20 30
e 20 36
e 20 39
e 20 49
e 21 28
e 21 35
e 21 40
e 21 44
e 21 47
e 22 25
e 22 32
e 22 39
e 22 40
e 22 48
e 22 50
e 23 34
e 23 40
e 23 42
e 23 45
e 23 47
e 24 29
e 24 33
e 25 44
e 26 29
e 26 30
e 26 33
e 27 37
e 28 41
e 30 31
e 31 33
e 32 43
e 33 50
e 34 45
n 29 2
n 30 7
n 33 4
n 35 3
n 36 6
n 40 10
n 41 9
n 42 8
n 46 1
n 48 5
